; benchmark generated from python API
(set-info :status unknown)
(declare-fun cell_1_7 () Int)
(declare-fun cell_1_8 () Int)
(declare-fun cell_2_2 () Int)
(declare-fun cell_2_3 () Int)
(declare-fun cell_3_5 () Int)
(declare-fun cell_3_6 () Int)
(declare-fun cell_4_1 () Int)
(declare-fun cell_4_2 () Int)
(declare-fun cell_5_7 () Int)
(declare-fun cell_5_9 () Int)
(declare-fun cell_6_4 () Int)
(declare-fun cell_6_6 () Int)
(declare-fun cell_7_1 () Int)
(declare-fun cell_7_5 () Int)
(declare-fun cell_8_3 () Int)
(declare-fun cell_8_4 () Int)
(declare-fun cell_9_9 () Int)
(declare-fun cell_1_1 () Int)
(declare-fun cell_2_1 () Int)
(declare-fun cell_3_1 () Int)
(declare-fun cell_5_1 () Int)
(declare-fun cell_6_1 () Int)
(declare-fun cell_8_1 () Int)
(declare-fun cell_9_1 () Int)
(declare-fun cell_1_2 () Int)
(declare-fun cell_3_2 () Int)
(declare-fun cell_5_2 () Int)
(declare-fun cell_6_2 () Int)
(declare-fun cell_7_2 () Int)
(declare-fun cell_8_2 () Int)
(declare-fun cell_9_2 () Int)
(declare-fun cell_1_3 () Int)
(declare-fun cell_3_3 () Int)
(declare-fun cell_4_3 () Int)
(declare-fun cell_5_3 () Int)
(declare-fun cell_6_3 () Int)
(declare-fun cell_7_3 () Int)
(declare-fun cell_9_3 () Int)
(declare-fun cell_1_4 () Int)
(declare-fun cell_2_4 () Int)
(declare-fun cell_3_4 () Int)
(declare-fun cell_4_4 () Int)
(declare-fun cell_5_4 () Int)
(declare-fun cell_7_4 () Int)
(declare-fun cell_9_4 () Int)
(declare-fun cell_1_5 () Int)
(declare-fun cell_2_5 () Int)
(declare-fun cell_4_5 () Int)
(declare-fun cell_5_5 () Int)
(declare-fun cell_6_5 () Int)
(declare-fun cell_8_5 () Int)
(declare-fun cell_9_5 () Int)
(declare-fun cell_1_6 () Int)
(declare-fun cell_2_6 () Int)
(declare-fun cell_4_6 () Int)
(declare-fun cell_5_6 () Int)
(declare-fun cell_7_6 () Int)
(declare-fun cell_8_6 () Int)
(declare-fun cell_9_6 () Int)
(declare-fun cell_2_7 () Int)
(declare-fun cell_3_7 () Int)
(declare-fun cell_4_7 () Int)
(declare-fun cell_6_7 () Int)
(declare-fun cell_7_7 () Int)
(declare-fun cell_8_7 () Int)
(declare-fun cell_9_7 () Int)
(declare-fun cell_2_8 () Int)
(declare-fun cell_3_8 () Int)
(declare-fun cell_4_8 () Int)
(declare-fun cell_5_8 () Int)
(declare-fun cell_6_8 () Int)
(declare-fun cell_7_8 () Int)
(declare-fun cell_8_8 () Int)
(declare-fun cell_9_8 () Int)
(declare-fun cell_1_9 () Int)
(declare-fun cell_2_9 () Int)
(declare-fun cell_3_9 () Int)
(declare-fun cell_4_9 () Int)
(declare-fun cell_6_9 () Int)
(declare-fun cell_7_9 () Int)
(declare-fun cell_8_9 () Int)
(assert
 (= cell_1_7 2))
(assert
 (= cell_1_8 1))
(assert
 (= cell_2_2 2))
(assert
 (= cell_2_3 1))
(assert
 (= cell_3_5 1))
(assert
 (= cell_3_6 2))
(assert
 (= cell_4_1 2))
(assert
 (= cell_4_2 1))
(assert
 (= cell_5_7 1))
(assert
 (= cell_5_9 2))
(assert
 (= cell_6_4 2))
(assert
 (= cell_6_6 1))
(assert
 (= cell_7_1 1))
(assert
 (= cell_7_5 2))
(assert
 (= cell_8_3 2))
(assert
 (= cell_8_4 1))
(assert
 (= cell_9_9 1))
(assert
 (let (($x1309 (= cell_1_1 9)))
 (let (($x1276 (= cell_1_1 8)))
 (let (($x2086 (= cell_1_1 7)))
 (let (($x2475 (= cell_1_1 6)))
 (let (($x1451 (= cell_1_1 5)))
 (let (($x2025 (= cell_1_1 4)))
 (let (($x672 (= cell_1_1 3)))
 (let (($x851 (= cell_1_1 2)))
 (let (($x403 (= cell_1_1 1)))
 (or $x403 $x851 $x672 $x2025 $x1451 $x2475 $x2086 $x1276 $x1309)))))))))))
(assert
 (let (($x6865 (= cell_2_1 9)))
 (let (($x3773 (= cell_2_1 8)))
 (let (($x1721 (= cell_2_1 7)))
 (let (($x2155 (= cell_2_1 6)))
 (let (($x3987 (= cell_2_1 5)))
 (let (($x1250 (= cell_2_1 4)))
 (let (($x1997 (= cell_2_1 3)))
 (let (($x304 (= cell_2_1 2)))
 (let (($x2876 (= cell_2_1 1)))
 (or $x2876 $x304 $x1997 $x1250 $x3987 $x2155 $x1721 $x3773 $x6865)))))))))))
(assert
 (let (($x2785 (= cell_3_1 9)))
 (let (($x807 (= cell_3_1 8)))
 (let (($x2081 (= cell_3_1 7)))
 (let (($x3999 (= cell_3_1 6)))
 (let (($x4166 (= cell_3_1 5)))
 (let (($x7322 (= cell_3_1 4)))
 (let (($x2703 (= cell_3_1 3)))
 (let (($x7866 (= cell_3_1 2)))
 (let (($x2142 (= cell_3_1 1)))
 (or $x2142 $x7866 $x2703 $x7322 $x4166 $x3999 $x2081 $x807 $x2785)))))))))))
(assert
 (let (($x948 (= cell_4_1 2)))
 (or (= cell_4_1 1) $x948 (= cell_4_1 3) (= cell_4_1 4) (= cell_4_1 5) (= cell_4_1 6) (= cell_4_1 7) (= cell_4_1 8) (= cell_4_1 9))))
(assert
 (let (($x3287 (= cell_5_1 9)))
 (let (($x243 (= cell_5_1 8)))
 (let (($x612 (= cell_5_1 7)))
 (let (($x3838 (= cell_5_1 6)))
 (let (($x1091 (= cell_5_1 5)))
 (let (($x940 (= cell_5_1 4)))
 (let (($x355 (= cell_5_1 3)))
 (let (($x3840 (= cell_5_1 2)))
 (let (($x984 (= cell_5_1 1)))
 (or $x984 $x3840 $x355 $x940 $x1091 $x3838 $x612 $x243 $x3287)))))))))))
(assert
 (let (($x1550 (= cell_6_1 9)))
 (let (($x3827 (= cell_6_1 8)))
 (let (($x3983 (= cell_6_1 7)))
 (let (($x1334 (= cell_6_1 6)))
 (let (($x484 (= cell_6_1 5)))
 (let (($x1373 (= cell_6_1 4)))
 (let (($x1307 (= cell_6_1 3)))
 (let (($x2930 (= cell_6_1 2)))
 (let (($x1019 (= cell_6_1 1)))
 (or $x1019 $x2930 $x1307 $x1373 $x484 $x1334 $x3983 $x3827 $x1550)))))))))))
(assert
 (let (($x505 (= cell_7_1 1)))
 (or $x505 (= cell_7_1 2) (= cell_7_1 3) (= cell_7_1 4) (= cell_7_1 5) (= cell_7_1 6) (= cell_7_1 7) (= cell_7_1 8) (= cell_7_1 9))))
(assert
 (let (($x548 (= cell_8_1 9)))
 (let (($x7649 (= cell_8_1 8)))
 (let (($x3892 (= cell_8_1 7)))
 (let (($x2172 (= cell_8_1 6)))
 (let (($x2018 (= cell_8_1 5)))
 (let (($x3534 (= cell_8_1 4)))
 (let (($x189 (= cell_8_1 3)))
 (let (($x6906 (= cell_8_1 2)))
 (let (($x3966 (= cell_8_1 1)))
 (or $x3966 $x6906 $x189 $x3534 $x2018 $x2172 $x3892 $x7649 $x548)))))))))))
(assert
 (let (($x1223 (= cell_9_1 9)))
 (let (($x7999 (= cell_9_1 8)))
 (let (($x2336 (= cell_9_1 7)))
 (let (($x1817 (= cell_9_1 6)))
 (let (($x712 (= cell_9_1 5)))
 (let (($x2949 (= cell_9_1 4)))
 (let (($x930 (= cell_9_1 3)))
 (let (($x3149 (= cell_9_1 2)))
 (let (($x950 (= cell_9_1 1)))
 (or $x950 $x3149 $x930 $x2949 $x712 $x1817 $x2336 $x7999 $x1223)))))))))))
(assert
 (let (($x3021 (= cell_1_2 9)))
 (let (($x345 (= cell_1_2 8)))
 (let (($x2377 (= cell_1_2 7)))
 (let (($x175 (= cell_1_2 6)))
 (let (($x2359 (= cell_1_2 5)))
 (let (($x561 (= cell_1_2 4)))
 (let (($x1819 (= cell_1_2 3)))
 (let (($x7301 (= cell_1_2 2)))
 (let (($x3298 (= cell_1_2 1)))
 (or $x3298 $x7301 $x1819 $x561 $x2359 $x175 $x2377 $x345 $x3021)))))))))))
(assert
 (let (($x2162 (= cell_2_2 2)))
 (or (= cell_2_2 1) $x2162 (= cell_2_2 3) (= cell_2_2 4) (= cell_2_2 5) (= cell_2_2 6) (= cell_2_2 7) (= cell_2_2 8) (= cell_2_2 9))))
(assert
 (let (($x3786 (= cell_3_2 9)))
 (let (($x6711 (= cell_3_2 8)))
 (let (($x2255 (= cell_3_2 7)))
 (let (($x1081 (= cell_3_2 6)))
 (let (($x1177 (= cell_3_2 5)))
 (let (($x4245 (= cell_3_2 4)))
 (let (($x752 (= cell_3_2 3)))
 (let (($x1667 (= cell_3_2 2)))
 (let (($x313 (= cell_3_2 1)))
 (or $x313 $x1667 $x752 $x4245 $x1177 $x1081 $x2255 $x6711 $x3786)))))))))))
(assert
 (let (($x1998 (= cell_4_2 1)))
 (or $x1998 (= cell_4_2 2) (= cell_4_2 3) (= cell_4_2 4) (= cell_4_2 5) (= cell_4_2 6) (= cell_4_2 7) (= cell_4_2 8) (= cell_4_2 9))))
(assert
 (let (($x2242 (= cell_5_2 9)))
 (let (($x7825 (= cell_5_2 8)))
 (let (($x654 (= cell_5_2 7)))
 (let (($x2614 (= cell_5_2 6)))
 (let (($x1812 (= cell_5_2 5)))
 (let (($x738 (= cell_5_2 4)))
 (let (($x2185 (= cell_5_2 3)))
 (let (($x1321 (= cell_5_2 2)))
 (let (($x2662 (= cell_5_2 1)))
 (or $x2662 $x1321 $x2185 $x738 $x1812 $x2614 $x654 $x7825 $x2242)))))))))))
(assert
 (let (($x815 (= cell_6_2 9)))
 (let (($x1234 (= cell_6_2 8)))
 (let (($x822 (= cell_6_2 7)))
 (let (($x1657 (= cell_6_2 6)))
 (let (($x1370 (= cell_6_2 5)))
 (let (($x1848 (= cell_6_2 4)))
 (let (($x3334 (= cell_6_2 3)))
 (let (($x1463 (= cell_6_2 2)))
 (let (($x2345 (= cell_6_2 1)))
 (or $x2345 $x1463 $x3334 $x1848 $x1370 $x1657 $x822 $x1234 $x815)))))))))))
(assert
 (let (($x3811 (= cell_7_2 9)))
 (let (($x1010 (= cell_7_2 8)))
 (let (($x370 (= cell_7_2 7)))
 (let (($x2872 (= cell_7_2 6)))
 (let (($x2349 (= cell_7_2 5)))
 (let (($x3400 (= cell_7_2 4)))
 (let (($x6629 (= cell_7_2 3)))
 (let (($x3434 (= cell_7_2 2)))
 (let (($x2620 (= cell_7_2 1)))
 (or $x2620 $x3434 $x6629 $x3400 $x2349 $x2872 $x370 $x1010 $x3811)))))))))))
(assert
 (let (($x2218 (= cell_8_2 9)))
 (let (($x7330 (= cell_8_2 8)))
 (let (($x2090 (= cell_8_2 7)))
 (let (($x1994 (= cell_8_2 6)))
 (let (($x2814 (= cell_8_2 5)))
 (let (($x3290 (= cell_8_2 4)))
 (let (($x1461 (= cell_8_2 3)))
 (let (($x4018 (= cell_8_2 2)))
 (let (($x281 (= cell_8_2 1)))
 (or $x281 $x4018 $x1461 $x3290 $x2814 $x1994 $x2090 $x7330 $x2218)))))))))))
(assert
 (let (($x1555 (= cell_9_2 9)))
 (let (($x2163 (= cell_9_2 8)))
 (let (($x7867 (= cell_9_2 7)))
 (let (($x7404 (= cell_9_2 6)))
 (let (($x583 (= cell_9_2 5)))
 (let (($x4246 (= cell_9_2 4)))
 (let (($x1224 (= cell_9_2 3)))
 (let (($x992 (= cell_9_2 2)))
 (let (($x8013 (= cell_9_2 1)))
 (or $x8013 $x992 $x1224 $x4246 $x583 $x7404 $x7867 $x2163 $x1555)))))))))))
(assert
 (let (($x4125 (= cell_1_3 9)))
 (let (($x7767 (= cell_1_3 8)))
 (let (($x80 (= cell_1_3 7)))
 (let (($x2039 (= cell_1_3 6)))
 (let (($x3271 (= cell_1_3 5)))
 (let (($x2084 (= cell_1_3 4)))
 (let (($x2035 (= cell_1_3 3)))
 (let (($x781 (= cell_1_3 2)))
 (let (($x3626 (= cell_1_3 1)))
 (or $x3626 $x781 $x2035 $x2084 $x3271 $x2039 $x80 $x7767 $x4125)))))))))))
(assert
 (let (($x799 (= cell_2_3 1)))
 (or $x799 (= cell_2_3 2) (= cell_2_3 3) (= cell_2_3 4) (= cell_2_3 5) (= cell_2_3 6) (= cell_2_3 7) (= cell_2_3 8) (= cell_2_3 9))))
(assert
 (let (($x157 (= cell_3_3 9)))
 (let (($x1102 (= cell_3_3 8)))
 (let (($x276 (= cell_3_3 7)))
 (let (($x592 (= cell_3_3 6)))
 (let (($x3872 (= cell_3_3 5)))
 (let (($x796 (= cell_3_3 4)))
 (let (($x7651 (= cell_3_3 3)))
 (let (($x1475 (= cell_3_3 2)))
 (let (($x2761 (= cell_3_3 1)))
 (or $x2761 $x1475 $x7651 $x796 $x3872 $x592 $x276 $x1102 $x157)))))))))))
(assert
 (let (($x1735 (= cell_4_3 9)))
 (let (($x7852 (= cell_4_3 8)))
 (let (($x3939 (= cell_4_3 7)))
 (let (($x3226 (= cell_4_3 6)))
 (let (($x2102 (= cell_4_3 5)))
 (let (($x611 (= cell_4_3 4)))
 (let (($x1946 (= cell_4_3 3)))
 (let (($x1132 (= cell_4_3 2)))
 (let (($x745 (= cell_4_3 1)))
 (or $x745 $x1132 $x1946 $x611 $x2102 $x3226 $x3939 $x7852 $x1735)))))))))))
(assert
 (let (($x4167 (= cell_5_3 9)))
 (let (($x3665 (= cell_5_3 8)))
 (let (($x4153 (= cell_5_3 7)))
 (let (($x616 (= cell_5_3 6)))
 (let (($x3482 (= cell_5_3 5)))
 (let (($x2623 (= cell_5_3 4)))
 (let (($x2798 (= cell_5_3 3)))
 (let (($x3438 (= cell_5_3 2)))
 (let (($x44 (= cell_5_3 1)))
 (or $x44 $x3438 $x2798 $x2623 $x3482 $x616 $x4153 $x3665 $x4167)))))))))))
(assert
 (let (($x1722 (= cell_6_3 9)))
 (let (($x2927 (= cell_6_3 8)))
 (let (($x2412 (= cell_6_3 7)))
 (let (($x1171 (= cell_6_3 6)))
 (let (($x1532 (= cell_6_3 5)))
 (let (($x878 (= cell_6_3 4)))
 (let (($x2630 (= cell_6_3 3)))
 (let (($x4229 (= cell_6_3 2)))
 (let (($x3250 (= cell_6_3 1)))
 (or $x3250 $x4229 $x2630 $x878 $x1532 $x1171 $x2412 $x2927 $x1722)))))))))))
(assert
 (let (($x3558 (= cell_7_3 9)))
 (let (($x7792 (= cell_7_3 8)))
 (let (($x2937 (= cell_7_3 7)))
 (let (($x606 (= cell_7_3 6)))
 (let (($x1298 (= cell_7_3 5)))
 (let (($x6952 (= cell_7_3 4)))
 (let (($x1645 (= cell_7_3 3)))
 (let (($x3230 (= cell_7_3 2)))
 (let (($x1707 (= cell_7_3 1)))
 (or $x1707 $x3230 $x1645 $x6952 $x1298 $x606 $x2937 $x7792 $x3558)))))))))))
(assert
 (let (($x873 (= cell_8_3 2)))
 (or (= cell_8_3 1) $x873 (= cell_8_3 3) (= cell_8_3 4) (= cell_8_3 5) (= cell_8_3 6) (= cell_8_3 7) (= cell_8_3 8) (= cell_8_3 9))))
(assert
 (let (($x2232 (= cell_9_3 9)))
 (let (($x393 (= cell_9_3 8)))
 (let (($x1792 (= cell_9_3 7)))
 (let (($x2637 (= cell_9_3 6)))
 (let (($x1728 (= cell_9_3 5)))
 (let (($x1181 (= cell_9_3 4)))
 (let (($x376 (= cell_9_3 3)))
 (let (($x78 (= cell_9_3 2)))
 (let (($x7030 (= cell_9_3 1)))
 (or $x7030 $x78 $x376 $x1181 $x1728 $x2637 $x1792 $x393 $x2232)))))))))))
(assert
 (let (($x521 (= cell_1_4 9)))
 (let (($x3073 (= cell_1_4 8)))
 (let (($x8016 (= cell_1_4 7)))
 (let (($x1806 (= cell_1_4 6)))
 (let (($x1100 (= cell_1_4 5)))
 (let (($x2149 (= cell_1_4 4)))
 (let (($x2772 (= cell_1_4 3)))
 (let (($x1348 (= cell_1_4 2)))
 (let (($x911 (= cell_1_4 1)))
 (or $x911 $x1348 $x2772 $x2149 $x1100 $x1806 $x8016 $x3073 $x521)))))))))))
(assert
 (let (($x728 (= cell_2_4 9)))
 (let (($x1515 (= cell_2_4 8)))
 (let (($x7047 (= cell_2_4 7)))
 (let (($x2318 (= cell_2_4 6)))
 (let (($x1591 (= cell_2_4 5)))
 (let (($x926 (= cell_2_4 4)))
 (let (($x245 (= cell_2_4 3)))
 (let (($x3737 (= cell_2_4 2)))
 (let (($x1836 (= cell_2_4 1)))
 (or $x1836 $x3737 $x245 $x926 $x1591 $x2318 $x7047 $x1515 $x728)))))))))))
(assert
 (let (($x2352 (= cell_3_4 9)))
 (let (($x2471 (= cell_3_4 8)))
 (let (($x837 (= cell_3_4 7)))
 (let (($x7783 (= cell_3_4 6)))
 (let (($x1138 (= cell_3_4 5)))
 (let (($x1664 (= cell_3_4 4)))
 (let (($x2066 (= cell_3_4 3)))
 (let (($x3614 (= cell_3_4 2)))
 (let (($x1528 (= cell_3_4 1)))
 (or $x1528 $x3614 $x2066 $x1664 $x1138 $x7783 $x837 $x2471 $x2352)))))))))))
(assert
 (let (($x485 (= cell_4_4 9)))
 (let (($x7345 (= cell_4_4 8)))
 (let (($x2657 (= cell_4_4 7)))
 (let (($x1584 (= cell_4_4 6)))
 (let (($x1862 (= cell_4_4 5)))
 (let (($x537 (= cell_4_4 4)))
 (let (($x1514 (= cell_4_4 3)))
 (let (($x1110 (= cell_4_4 2)))
 (let (($x783 (= cell_4_4 1)))
 (or $x783 $x1110 $x1514 $x537 $x1862 $x1584 $x2657 $x7345 $x485)))))))))))
(assert
 (let (($x990 (= cell_5_4 9)))
 (let (($x3044 (= cell_5_4 8)))
 (let (($x4049 (= cell_5_4 7)))
 (let (($x433 (= cell_5_4 6)))
 (let (($x1568 (= cell_5_4 5)))
 (let (($x254 (= cell_5_4 4)))
 (let (($x2786 (= cell_5_4 3)))
 (let (($x3903 (= cell_5_4 2)))
 (let (($x1498 (= cell_5_4 1)))
 (or $x1498 $x3903 $x2786 $x254 $x1568 $x433 $x4049 $x3044 $x990)))))))))))
(assert
 (let (($x1763 (= cell_6_4 2)))
 (or (= cell_6_4 1) $x1763 (= cell_6_4 3) (= cell_6_4 4) (= cell_6_4 5) (= cell_6_4 6) (= cell_6_4 7) (= cell_6_4 8) (= cell_6_4 9))))
(assert
 (let (($x7319 (= cell_7_4 9)))
 (let (($x3615 (= cell_7_4 8)))
 (let (($x3133 (= cell_7_4 7)))
 (let (($x2749 (= cell_7_4 6)))
 (let (($x860 (= cell_7_4 5)))
 (let (($x2737 (= cell_7_4 4)))
 (let (($x1033 (= cell_7_4 3)))
 (let (($x183 (= cell_7_4 2)))
 (let (($x1586 (= cell_7_4 1)))
 (or $x1586 $x183 $x1033 $x2737 $x860 $x2749 $x3133 $x3615 $x7319)))))))))))
(assert
 (let (($x2045 (= cell_8_4 1)))
 (or $x2045 (= cell_8_4 2) (= cell_8_4 3) (= cell_8_4 4) (= cell_8_4 5) (= cell_8_4 6) (= cell_8_4 7) (= cell_8_4 8) (= cell_8_4 9))))
(assert
 (let (($x1267 (= cell_9_4 9)))
 (let (($x1064 (= cell_9_4 8)))
 (let (($x3902 (= cell_9_4 7)))
 (let (($x274 (= cell_9_4 6)))
 (let (($x3382 (= cell_9_4 5)))
 (let (($x1805 (= cell_9_4 4)))
 (let (($x642 (= cell_9_4 3)))
 (let (($x1335 (= cell_9_4 2)))
 (let (($x1737 (= cell_9_4 1)))
 (or $x1737 $x1335 $x642 $x1805 $x3382 $x274 $x3902 $x1064 $x1267)))))))))))
(assert
 (let (($x79 (= cell_1_5 9)))
 (let (($x4089 (= cell_1_5 8)))
 (let (($x6753 (= cell_1_5 7)))
 (let (($x2539 (= cell_1_5 6)))
 (let (($x3177 (= cell_1_5 5)))
 (let (($x1834 (= cell_1_5 4)))
 (let (($x3293 (= cell_1_5 3)))
 (let (($x2361 (= cell_1_5 2)))
 (let (($x1566 (= cell_1_5 1)))
 (or $x1566 $x2361 $x3293 $x1834 $x3177 $x2539 $x6753 $x4089 $x79)))))))))))
(assert
 (let (($x3561 (= cell_2_5 9)))
 (let (($x3711 (= cell_2_5 8)))
 (let (($x1016 (= cell_2_5 7)))
 (let (($x2732 (= cell_2_5 6)))
 (let (($x290 (= cell_2_5 5)))
 (let (($x3165 (= cell_2_5 4)))
 (let (($x4036 (= cell_2_5 3)))
 (let (($x431 (= cell_2_5 2)))
 (let (($x2538 (= cell_2_5 1)))
 (or $x2538 $x431 $x4036 $x3165 $x290 $x2732 $x1016 $x3711 $x3561)))))))))))
(assert
 (let (($x2773 (= cell_3_5 1)))
 (or $x2773 (= cell_3_5 2) (= cell_3_5 3) (= cell_3_5 4) (= cell_3_5 5) (= cell_3_5 6) (= cell_3_5 7) (= cell_3_5 8) (= cell_3_5 9))))
(assert
 (let (($x817 (= cell_4_5 9)))
 (let (($x935 (= cell_4_5 8)))
 (let (($x4045 (= cell_4_5 7)))
 (let (($x1765 (= cell_4_5 6)))
 (let (($x2198 (= cell_4_5 5)))
 (let (($x279 (= cell_4_5 4)))
 (let (($x1747 (= cell_4_5 3)))
 (let (($x3203 (= cell_4_5 2)))
 (let (($x4150 (= cell_4_5 1)))
 (or $x4150 $x3203 $x1747 $x279 $x2198 $x1765 $x4045 $x935 $x817)))))))))))
(assert
 (let (($x3295 (= cell_5_5 9)))
 (let (($x2383 (= cell_5_5 8)))
 (let (($x4083 (= cell_5_5 7)))
 (let (($x3214 (= cell_5_5 6)))
 (let (($x928 (= cell_5_5 5)))
 (let (($x2393 (= cell_5_5 4)))
 (let (($x886 (= cell_5_5 3)))
 (let (($x3115 (= cell_5_5 2)))
 (let (($x3062 (= cell_5_5 1)))
 (or $x3062 $x3115 $x886 $x2393 $x928 $x3214 $x4083 $x2383 $x3295)))))))))))
(assert
 (let (($x2214 (= cell_6_5 9)))
 (let (($x296 (= cell_6_5 8)))
 (let (($x333 (= cell_6_5 7)))
 (let (($x2283 (= cell_6_5 6)))
 (let (($x1496 (= cell_6_5 5)))
 (let (($x2419 (= cell_6_5 4)))
 (let (($x1310 (= cell_6_5 3)))
 (let (($x1101 (= cell_6_5 2)))
 (let (($x2316 (= cell_6_5 1)))
 (or $x2316 $x1101 $x1310 $x2419 $x1496 $x2283 $x333 $x296 $x2214)))))))))))
(assert
 (let (($x2958 (= cell_7_5 2)))
 (or (= cell_7_5 1) $x2958 (= cell_7_5 3) (= cell_7_5 4) (= cell_7_5 5) (= cell_7_5 6) (= cell_7_5 7) (= cell_7_5 8) (= cell_7_5 9))))
(assert
 (let (($x2494 (= cell_8_5 2)))
 (let (($x2064 (= cell_8_5 1)))
 (or $x2064 $x2494 (= cell_8_5 3) (= cell_8_5 4) (= cell_8_5 5) (= cell_8_5 6) (= cell_8_5 7) (= cell_8_5 8) (= cell_8_5 9)))))
(assert
 (let (($x1991 (= cell_9_5 9)))
 (let (($x2973 (= cell_9_5 8)))
 (let (($x2760 (= cell_9_5 7)))
 (let (($x934 (= cell_9_5 6)))
 (let (($x3420 (= cell_9_5 5)))
 (let (($x1541 (= cell_9_5 4)))
 (let (($x2187 (= cell_9_5 3)))
 (let (($x7693 (= cell_9_5 2)))
 (let (($x631 (= cell_9_5 1)))
 (or $x631 $x7693 $x2187 $x1541 $x3420 $x934 $x2760 $x2973 $x1991)))))))))))
(assert
 (let (($x1832 (= cell_1_6 9)))
 (let (($x2938 (= cell_1_6 8)))
 (let (($x1762 (= cell_1_6 7)))
 (let (($x31 (= cell_1_6 6)))
 (let (($x4239 (= cell_1_6 5)))
 (let (($x3225 (= cell_1_6 4)))
 (let (($x2199 (= cell_1_6 3)))
 (let (($x4124 (= cell_1_6 2)))
 (let (($x6581 (= cell_1_6 1)))
 (or $x6581 $x4124 $x2199 $x3225 $x4239 $x31 $x1762 $x2938 $x1832)))))))))))
(assert
 (let (($x1120 (= cell_2_6 9)))
 (let (($x3817 (= cell_2_6 8)))
 (let (($x3654 (= cell_2_6 7)))
 (let (($x2302 (= cell_2_6 6)))
 (let (($x1774 (= cell_2_6 5)))
 (let (($x713 (= cell_2_6 4)))
 (let (($x3557 (= cell_2_6 3)))
 (let (($x2532 (= cell_2_6 2)))
 (let (($x2148 (= cell_2_6 1)))
 (or $x2148 $x2532 $x3557 $x713 $x1774 $x2302 $x3654 $x3817 $x1120)))))))))))
(assert
 (let (($x3833 (= cell_3_6 2)))
 (or (= cell_3_6 1) $x3833 (= cell_3_6 3) (= cell_3_6 4) (= cell_3_6 5) (= cell_3_6 6) (= cell_3_6 7) (= cell_3_6 8) (= cell_3_6 9))))
(assert
 (let (($x4159 (= cell_4_6 9)))
 (let (($x2898 (= cell_4_6 8)))
 (let (($x3976 (= cell_4_6 7)))
 (let (($x2674 (= cell_4_6 6)))
 (let (($x3716 (= cell_4_6 5)))
 (let (($x4179 (= cell_4_6 4)))
 (let (($x3080 (= cell_4_6 3)))
 (let (($x2516 (= cell_4_6 2)))
 (let (($x7764 (= cell_4_6 1)))
 (or $x7764 $x2516 $x3080 $x4179 $x3716 $x2674 $x3976 $x2898 $x4159)))))))))))
(assert
 (let (($x3926 (= cell_5_6 9)))
 (let (($x219 (= cell_5_6 8)))
 (let (($x4093 (= cell_5_6 7)))
 (let (($x3183 (= cell_5_6 6)))
 (let (($x1397 (= cell_5_6 5)))
 (let (($x1012 (= cell_5_6 4)))
 (let (($x4090 (= cell_5_6 3)))
 (let (($x3588 (= cell_5_6 2)))
 (let (($x1522 (= cell_5_6 1)))
 (or $x1522 $x3588 $x4090 $x1012 $x1397 $x3183 $x4093 $x219 $x3926)))))))))))
(assert
 (let (($x1544 (= cell_6_6 1)))
 (or $x1544 (= cell_6_6 2) (= cell_6_6 3) (= cell_6_6 4) (= cell_6_6 5) (= cell_6_6 6) (= cell_6_6 7) (= cell_6_6 8) (= cell_6_6 9))))
(assert
 (let (($x723 (= cell_7_6 9)))
 (let (($x4111 (= cell_7_6 8)))
 (let (($x114 (= cell_7_6 7)))
 (let (($x3670 (= cell_7_6 6)))
 (let (($x2932 (= cell_7_6 5)))
 (let (($x3483 (= cell_7_6 4)))
 (let (($x1963 (= cell_7_6 3)))
 (let (($x2050 (= cell_7_6 2)))
 (let (($x120 (= cell_7_6 1)))
 (or $x120 $x2050 $x1963 $x3483 $x2932 $x3670 $x114 $x4111 $x723)))))))))))
(assert
 (let (($x2069 (= cell_8_6 2)))
 (let (($x1849 (= cell_8_6 1)))
 (or $x1849 $x2069 (= cell_8_6 3) (= cell_8_6 4) (= cell_8_6 5) (= cell_8_6 6) (= cell_8_6 7) (= cell_8_6 8) (= cell_8_6 9)))))
(assert
 (let (($x644 (= cell_9_6 9)))
 (let (($x1017 (= cell_9_6 8)))
 (let (($x2257 (= cell_9_6 7)))
 (let (($x295 (= cell_9_6 6)))
 (let (($x682 (= cell_9_6 5)))
 (let (($x6809 (= cell_9_6 4)))
 (let (($x1222 (= cell_9_6 3)))
 (let (($x2827 (= cell_9_6 2)))
 (let (($x1063 (= cell_9_6 1)))
 (or $x1063 $x2827 $x1222 $x6809 $x682 $x295 $x2257 $x1017 $x644)))))))))))
(assert
 (let (($x3336 (= cell_1_7 2)))
 (or (= cell_1_7 1) $x3336 (= cell_1_7 3) (= cell_1_7 4) (= cell_1_7 5) (= cell_1_7 6) (= cell_1_7 7) (= cell_1_7 8) (= cell_1_7 9))))
(assert
 (let (($x812 (= cell_2_7 9)))
 (let (($x7671 (= cell_2_7 8)))
 (let (($x3642 (= cell_2_7 7)))
 (let (($x2258 (= cell_2_7 6)))
 (let (($x989 (= cell_2_7 5)))
 (let (($x2462 (= cell_2_7 4)))
 (let (($x6722 (= cell_2_7 3)))
 (let (($x3517 (= cell_2_7 2)))
 (let (($x3059 (= cell_2_7 1)))
 (or $x3059 $x3517 $x6722 $x2462 $x989 $x2258 $x3642 $x7671 $x812)))))))))))
(assert
 (let (($x914 (= cell_3_7 9)))
 (let (($x1816 (= cell_3_7 8)))
 (let (($x1988 (= cell_3_7 7)))
 (let (($x4067 (= cell_3_7 6)))
 (let (($x1422 (= cell_3_7 5)))
 (let (($x1412 (= cell_3_7 4)))
 (let (($x621 (= cell_3_7 3)))
 (let (($x2101 (= cell_3_7 2)))
 (let (($x7986 (= cell_3_7 1)))
 (or $x7986 $x2101 $x621 $x1412 $x1422 $x4067 $x1988 $x1816 $x914)))))))))))
(assert
 (let (($x2611 (= cell_4_7 9)))
 (let (($x1319 (= cell_4_7 8)))
 (let (($x717 (= cell_4_7 7)))
 (let (($x1202 (= cell_4_7 6)))
 (let (($x1859 (= cell_4_7 5)))
 (let (($x2669 (= cell_4_7 4)))
 (let (($x853 (= cell_4_7 3)))
 (let (($x3739 (= cell_4_7 2)))
 (let (($x3006 (= cell_4_7 1)))
 (or $x3006 $x3739 $x853 $x2669 $x1859 $x1202 $x717 $x1319 $x2611)))))))))))
(assert
 (let (($x118 (= cell_5_7 1)))
 (or $x118 (= cell_5_7 2) (= cell_5_7 3) (= cell_5_7 4) (= cell_5_7 5) (= cell_5_7 6) (= cell_5_7 7) (= cell_5_7 8) (= cell_5_7 9))))
(assert
 (let (($x2551 (= cell_6_7 2)))
 (let (($x2355 (= cell_6_7 1)))
 (or $x2355 $x2551 (= cell_6_7 3) (= cell_6_7 4) (= cell_6_7 5) (= cell_6_7 6) (= cell_6_7 7) (= cell_6_7 8) (= cell_6_7 9)))))
(assert
 (let (($x2481 (= cell_7_7 9)))
 (let (($x7515 (= cell_7_7 8)))
 (let (($x3818 (= cell_7_7 7)))
 (let (($x285 (= cell_7_7 6)))
 (let (($x2634 (= cell_7_7 5)))
 (let (($x2171 (= cell_7_7 4)))
 (let (($x2252 (= cell_7_7 3)))
 (let (($x1546 (= cell_7_7 2)))
 (let (($x4183 (= cell_7_7 1)))
 (or $x4183 $x1546 $x2252 $x2171 $x2634 $x285 $x3818 $x7515 $x2481)))))))))))
(assert
 (let (($x1411 (= cell_8_7 9)))
 (let (($x1815 (= cell_8_7 8)))
 (let (($x3159 (= cell_8_7 7)))
 (let (($x2029 (= cell_8_7 6)))
 (let (($x2037 (= cell_8_7 5)))
 (let (($x2608 (= cell_8_7 4)))
 (let (($x3684 (= cell_8_7 3)))
 (let (($x709 (= cell_8_7 2)))
 (let (($x7835 (= cell_8_7 1)))
 (or $x7835 $x709 $x3684 $x2608 $x2037 $x2029 $x3159 $x1815 $x1411)))))))))))
(assert
 (let (($x2588 (= cell_9_7 9)))
 (let (($x2497 (= cell_9_7 8)))
 (let (($x2350 (= cell_9_7 7)))
 (let (($x1386 (= cell_9_7 6)))
 (let (($x1766 (= cell_9_7 5)))
 (let (($x2951 (= cell_9_7 4)))
 (let (($x1741 (= cell_9_7 3)))
 (let (($x422 (= cell_9_7 2)))
 (let (($x6804 (= cell_9_7 1)))
 (or $x6804 $x422 $x1741 $x2951 $x1766 $x1386 $x2350 $x2497 $x2588)))))))))))
(assert
 (let (($x1931 (= cell_1_8 1)))
 (or $x1931 (= cell_1_8 2) (= cell_1_8 3) (= cell_1_8 4) (= cell_1_8 5) (= cell_1_8 6) (= cell_1_8 7) (= cell_1_8 8) (= cell_1_8 9))))
(assert
 (let (($x2781 (= cell_2_8 2)))
 (let (($x2517 (= cell_2_8 1)))
 (or $x2517 $x2781 (= cell_2_8 3) (= cell_2_8 4) (= cell_2_8 5) (= cell_2_8 6) (= cell_2_8 7) (= cell_2_8 8) (= cell_2_8 9)))))
(assert
 (let (($x261 (= cell_3_8 9)))
 (let (($x1650 (= cell_3_8 8)))
 (let (($x182 (= cell_3_8 7)))
 (let (($x2048 (= cell_3_8 6)))
 (let (($x3743 (= cell_3_8 5)))
 (let (($x2912 (= cell_3_8 4)))
 (let (($x3542 (= cell_3_8 3)))
 (let (($x565 (= cell_3_8 2)))
 (let (($x1884 (= cell_3_8 1)))
 (or $x1884 $x565 $x3542 $x2912 $x3743 $x2048 $x182 $x1650 $x261)))))))))))
(assert
 (let (($x2340 (= cell_4_8 9)))
 (let (($x1753 (= cell_4_8 8)))
 (let (($x2536 (= cell_4_8 7)))
 (let (($x1725 (= cell_4_8 6)))
 (let (($x4187 (= cell_4_8 5)))
 (let (($x1066 (= cell_4_8 4)))
 (let (($x3990 (= cell_4_8 3)))
 (let (($x3632 (= cell_4_8 2)))
 (let (($x38 (= cell_4_8 1)))
 (or $x38 $x3632 $x3990 $x1066 $x4187 $x1725 $x2536 $x1753 $x2340)))))))))))
(assert
 (let (($x3667 (= cell_5_8 9)))
 (let (($x2556 (= cell_5_8 8)))
 (let (($x3698 (= cell_5_8 7)))
 (let (($x129 (= cell_5_8 6)))
 (let (($x3176 (= cell_5_8 5)))
 (let (($x6813 (= cell_5_8 4)))
 (let (($x2779 (= cell_5_8 3)))
 (let (($x2746 (= cell_5_8 2)))
 (let (($x1764 (= cell_5_8 1)))
 (or $x1764 $x2746 $x2779 $x6813 $x3176 $x129 $x3698 $x2556 $x3667)))))))))))
(assert
 (let (($x1536 (= cell_6_8 2)))
 (let (($x177 (= cell_6_8 1)))
 (or $x177 $x1536 (= cell_6_8 3) (= cell_6_8 4) (= cell_6_8 5) (= cell_6_8 6) (= cell_6_8 7) (= cell_6_8 8) (= cell_6_8 9)))))
(assert
 (let (($x1678 (= cell_7_8 9)))
 (let (($x1467 (= cell_7_8 8)))
 (let (($x4162 (= cell_7_8 7)))
 (let (($x945 (= cell_7_8 6)))
 (let (($x2815 (= cell_7_8 5)))
 (let (($x2639 (= cell_7_8 4)))
 (let (($x2687 (= cell_7_8 3)))
 (let (($x575 (= cell_7_8 2)))
 (let (($x3144 (= cell_7_8 1)))
 (or $x3144 $x575 $x2687 $x2639 $x2815 $x945 $x4162 $x1467 $x1678)))))))))))
(assert
 (let (($x3081 (= cell_8_8 9)))
 (let (($x2365 (= cell_8_8 8)))
 (let (($x531 (= cell_8_8 7)))
 (let (($x3270 (= cell_8_8 6)))
 (let (($x3693 (= cell_8_8 5)))
 (let (($x520 (= cell_8_8 4)))
 (let (($x2105 (= cell_8_8 3)))
 (let (($x6733 (= cell_8_8 2)))
 (let (($x4115 (= cell_8_8 1)))
 (or $x4115 $x6733 $x2105 $x520 $x3693 $x3270 $x531 $x2365 $x3081)))))))))))
(assert
 (let (($x1383 (= cell_9_8 9)))
 (let (($x1423 (= cell_9_8 8)))
 (let (($x2284 (= cell_9_8 7)))
 (let (($x2188 (= cell_9_8 6)))
 (let (($x3468 (= cell_9_8 5)))
 (let (($x2685 (= cell_9_8 4)))
 (let (($x1856 (= cell_9_8 3)))
 (let (($x978 (= cell_9_8 2)))
 (let (($x291 (= cell_9_8 1)))
 (or $x291 $x978 $x1856 $x2685 $x3468 $x2188 $x2284 $x1423 $x1383)))))))))))
(assert
 (let (($x576 (= cell_1_9 9)))
 (let (($x659 (= cell_1_9 8)))
 (let (($x3358 (= cell_1_9 7)))
 (let (($x241 (= cell_1_9 6)))
 (let (($x2720 (= cell_1_9 5)))
 (let (($x3550 (= cell_1_9 4)))
 (let (($x1180 (= cell_1_9 3)))
 (let (($x3341 (= cell_1_9 2)))
 (let (($x774 (= cell_1_9 1)))
 (or $x774 $x3341 $x1180 $x3550 $x2720 $x241 $x3358 $x659 $x576)))))))))))
(assert
 (let (($x3894 (= cell_2_9 9)))
 (let (($x1424 (= cell_2_9 8)))
 (let (($x7770 (= cell_2_9 7)))
 (let (($x3709 (= cell_2_9 6)))
 (let (($x2041 (= cell_2_9 5)))
 (let (($x6784 (= cell_2_9 4)))
 (let (($x1418 (= cell_2_9 3)))
 (let (($x2740 (= cell_2_9 2)))
 (let (($x2227 (= cell_2_9 1)))
 (or $x2227 $x2740 $x1418 $x6784 $x2041 $x3709 $x7770 $x1424 $x3894)))))))))))
(assert
 (let (($x1790 (= cell_3_9 9)))
 (let (($x101 (= cell_3_9 8)))
 (let (($x907 (= cell_3_9 7)))
 (let (($x2645 (= cell_3_9 6)))
 (let (($x958 (= cell_3_9 5)))
 (let (($x201 (= cell_3_9 4)))
 (let (($x6985 (= cell_3_9 3)))
 (let (($x3184 (= cell_3_9 2)))
 (let (($x3855 (= cell_3_9 1)))
 (or $x3855 $x3184 $x6985 $x201 $x958 $x2645 $x907 $x101 $x1790)))))))))))
(assert
 (let (($x2429 (= cell_4_9 9)))
 (let (($x863 (= cell_4_9 8)))
 (let (($x1629 (= cell_4_9 7)))
 (let (($x3357 (= cell_4_9 6)))
 (let (($x2047 (= cell_4_9 5)))
 (let (($x792 (= cell_4_9 4)))
 (let (($x3524 (= cell_4_9 3)))
 (let (($x3715 (= cell_4_9 2)))
 (let (($x2633 (= cell_4_9 1)))
 (or $x2633 $x3715 $x3524 $x792 $x2047 $x3357 $x1629 $x863 $x2429)))))))))))
(assert
 (let (($x2346 (= cell_5_9 2)))
 (or (= cell_5_9 1) $x2346 (= cell_5_9 3) (= cell_5_9 4) (= cell_5_9 5) (= cell_5_9 6) (= cell_5_9 7) (= cell_5_9 8) (= cell_5_9 9))))
(assert
 (let (($x3279 (= cell_6_9 9)))
 (let (($x1242 (= cell_6_9 8)))
 (let (($x2129 (= cell_6_9 7)))
 (let (($x2739 (= cell_6_9 6)))
 (let (($x6618 (= cell_6_9 5)))
 (let (($x2317 (= cell_6_9 4)))
 (let (($x1868 (= cell_6_9 3)))
 (let (($x325 (= cell_6_9 2)))
 (let (($x1630 (= cell_6_9 1)))
 (or $x1630 $x325 $x1868 $x2317 $x6618 $x2739 $x2129 $x1242 $x3279)))))))))))
(assert
 (let (($x2098 (= cell_7_9 9)))
 (let (($x772 (= cell_7_9 8)))
 (let (($x2452 (= cell_7_9 7)))
 (let (($x527 (= cell_7_9 6)))
 (let (($x7530 (= cell_7_9 5)))
 (let (($x2337 (= cell_7_9 4)))
 (let (($x2376 (= cell_7_9 3)))
 (let (($x4068 (= cell_7_9 2)))
 (let (($x7372 (= cell_7_9 1)))
 (or $x7372 $x4068 $x2376 $x2337 $x7530 $x527 $x2452 $x772 $x2098)))))))))))
(assert
 (let (($x92 (= cell_8_9 9)))
 (let (($x1237 (= cell_8_9 8)))
 (let (($x2860 (= cell_8_9 7)))
 (let (($x1561 (= cell_8_9 6)))
 (let (($x1710 (= cell_8_9 5)))
 (let (($x670 (= cell_8_9 4)))
 (let (($x1879 (= cell_8_9 3)))
 (let (($x1729 (= cell_8_9 2)))
 (let (($x352 (= cell_8_9 1)))
 (or $x352 $x1729 $x1879 $x670 $x1710 $x1561 $x2860 $x1237 $x92)))))))))))
(assert
 (let (($x1574 (= cell_9_9 1)))
 (or $x1574 (= cell_9_9 2) (= cell_9_9 3) (= cell_9_9 4) (= cell_9_9 5) (= cell_9_9 6) (= cell_9_9 7) (= cell_9_9 8) (= cell_9_9 9))))
(assert
 (and (distinct cell_1_1 cell_1_2 cell_1_3 cell_1_4 cell_1_5 cell_1_6 cell_1_7 cell_1_8 cell_1_9) true))
(assert
 (and (distinct cell_2_1 cell_2_2 cell_2_3 cell_2_4 cell_2_5 cell_2_6 cell_2_7 cell_2_8 cell_2_9) true))
(assert
 (and (distinct cell_3_1 cell_3_2 cell_3_3 cell_3_4 cell_3_5 cell_3_6 cell_3_7 cell_3_8 cell_3_9) true))
(assert
 (and (distinct cell_4_1 cell_4_2 cell_4_3 cell_4_4 cell_4_5 cell_4_6 cell_4_7 cell_4_8 cell_4_9) true))
(assert
 (and (distinct cell_5_1 cell_5_2 cell_5_3 cell_5_4 cell_5_5 cell_5_6 cell_5_7 cell_5_8 cell_5_9) true))
(assert
 (and (distinct cell_6_1 cell_6_2 cell_6_3 cell_6_4 cell_6_5 cell_6_6 cell_6_7 cell_6_8 cell_6_9) true))
(assert
 (and (distinct cell_7_1 cell_7_2 cell_7_3 cell_7_4 cell_7_5 cell_7_6 cell_7_7 cell_7_8 cell_7_9) true))
(assert
 (and (distinct cell_8_1 cell_8_2 cell_8_3 cell_8_4 cell_8_5 cell_8_6 cell_8_7 cell_8_8 cell_8_9) true))
(assert
 (and (distinct cell_9_1 cell_9_2 cell_9_3 cell_9_4 cell_9_5 cell_9_6 cell_9_7 cell_9_8 cell_9_9) true))
(assert
 (and (distinct cell_1_1 cell_2_1 cell_3_1 cell_4_1 cell_5_1 cell_6_1 cell_7_1 cell_8_1 cell_9_1) true))
(assert
 (and (distinct cell_1_2 cell_2_2 cell_3_2 cell_4_2 cell_5_2 cell_6_2 cell_7_2 cell_8_2 cell_9_2) true))
(assert
 (and (distinct cell_1_3 cell_2_3 cell_3_3 cell_4_3 cell_5_3 cell_6_3 cell_7_3 cell_8_3 cell_9_3) true))
(assert
 (and (distinct cell_1_4 cell_2_4 cell_3_4 cell_4_4 cell_5_4 cell_6_4 cell_7_4 cell_8_4 cell_9_4) true))
(assert
 (and (distinct cell_1_5 cell_2_5 cell_3_5 cell_4_5 cell_5_5 cell_6_5 cell_7_5 cell_8_5 cell_9_5) true))
(assert
 (and (distinct cell_1_6 cell_2_6 cell_3_6 cell_4_6 cell_5_6 cell_6_6 cell_7_6 cell_8_6 cell_9_6) true))
(assert
 (and (distinct cell_1_7 cell_2_7 cell_3_7 cell_4_7 cell_5_7 cell_6_7 cell_7_7 cell_8_7 cell_9_7) true))
(assert
 (and (distinct cell_1_8 cell_2_8 cell_3_8 cell_4_8 cell_5_8 cell_6_8 cell_7_8 cell_8_8 cell_9_8) true))
(assert
 (and (distinct cell_1_9 cell_2_9 cell_3_9 cell_4_9 cell_5_9 cell_6_9 cell_7_9 cell_8_9 cell_9_9) true))
(assert
 (and (distinct cell_1_1 cell_1_2 cell_1_3 cell_2_1 cell_2_2 cell_2_3 cell_3_1 cell_3_2 cell_3_3) true))
(assert
 (and (distinct cell_1_4 cell_1_5 cell_1_6 cell_2_4 cell_2_5 cell_2_6 cell_3_4 cell_3_5 cell_3_6) true))
(assert
 (and (distinct cell_1_7 cell_1_8 cell_1_9 cell_2_7 cell_2_8 cell_2_9 cell_3_7 cell_3_8 cell_3_9) true))
(assert
 (and (distinct cell_4_1 cell_4_2 cell_4_3 cell_5_1 cell_5_2 cell_5_3 cell_6_1 cell_6_2 cell_6_3) true))
(assert
 (and (distinct cell_4_4 cell_4_5 cell_4_6 cell_5_4 cell_5_5 cell_5_6 cell_6_4 cell_6_5 cell_6_6) true))
(assert
 (and (distinct cell_4_7 cell_4_8 cell_4_9 cell_5_7 cell_5_8 cell_5_9 cell_6_7 cell_6_8 cell_6_9) true))
(assert
 (and (distinct cell_7_1 cell_7_2 cell_7_3 cell_8_1 cell_8_2 cell_8_3 cell_9_1 cell_9_2 cell_9_3) true))
(assert
 (and (distinct cell_7_4 cell_7_5 cell_7_6 cell_8_4 cell_8_5 cell_8_6 cell_9_4 cell_9_5 cell_9_6) true))
(assert
 (and (distinct cell_7_7 cell_7_8 cell_7_9 cell_8_7 cell_8_8 cell_8_9 cell_9_7 cell_9_8 cell_9_9) true))
(assert
 (let (($x2239 (and (distinct cell_5_9 cell_6_8 cell_7_7 cell_8_6) true)))
 (let (($x2326 (and (distinct cell_2_9 cell_3_8 cell_4_7 cell_5_6 cell_6_5 cell_7_4 cell_8_3 cell_9_2) true)))
 (let (($x7957 (and (distinct cell_1_8 cell_2_7 cell_3_6 cell_4_5 cell_5_4 cell_6_3 cell_7_2 cell_8_1) true)))
 (let (($x1902 (and (distinct cell_1_5 cell_2_4 cell_3_3 cell_4_2) true)))
 (let (($x3192 (and (distinct cell_5_1 cell_6_2 cell_7_3 cell_8_4) true)))
 (let (($x2695 (and (distinct cell_2_1 cell_3_2 cell_4_3 cell_5_4 cell_6_5 cell_7_6 cell_8_7 cell_9_8) true)))
 (let (($x7805 (and (distinct cell_1_2 cell_2_3 cell_3_4 cell_4_5 cell_5_6 cell_6_7 cell_7_8 cell_8_9) true)))
 (let (($x2208 (and (distinct cell_1_5 cell_2_6 cell_3_7 cell_4_8) true)))
 (and $x2208 $x7805 $x2695 $x3192 $x1902 $x7957 $x2326 $x2239))))))))))
(assert
 (= cell_9_8 2))
(check-sat)
